benchmark/results/graph__10-1000-0.10-04_11/graph__10-1000-0.10-04_11_QuintonOs_Benders_primal_sub.lp
\ This file has been generated by DOcplex
\ ENCODING=ISO-8859-1
\Problem name: Quinton Bounded Benders_primal_sub

Maximize
 obj: tau
Subject To
 c1: tau <= 0.001107419712
 c2: y_a0_proc_1 + y_a0_proc_3 - tau = 0
 c3: y_a0_proc_1 <= 0
 c4: y_a0_proc_3 <= 1
 c5: tau <= 0.005102040816
 c6: y_a1_proc_0 + y_a1_proc_1 + y_a1_proc_2 + y_a1_proc_3 - tau = 0
 c7: y_a1_proc_0 <= 1
 c8: y_a1_proc_1 <= 0
 c9: y_a1_proc_2 <= 0
 c10: y_a1_proc_3 <= 0
 c11: tau <= 0.001579778831
 c12: y_a2_proc_1 + y_a2_proc_2 + y_a2_proc_3 - tau = 0
 c13: y_a2_proc_1 <= 0
 c14: y_a2_proc_2 <= 0
 c15: y_a2_proc_3 <= 1
 c16: tau <= 0.001021450460
 c17: y_a3_proc_0 + y_a3_proc_1 + y_a3_proc_2 + y_a3_proc_3 - tau = 0
 c18: y_a3_proc_0 <= 1
 c19: y_a3_proc_1 <= 0
 c20: y_a3_proc_2 <= 0
 c21: y_a3_proc_3 <= 0
 c22: tau <= 0.000810372771
 c23: y_a4_proc_0 + y_a4_proc_1 + y_a4_proc_2 - tau = 0
 c24: y_a4_proc_0 <= 0
 c25: y_a4_proc_1 <= 0
 c26: y_a4_proc_2 <= 1
 c27: tau <= 0.001168224299
 c28: y_a5_proc_0 + y_a5_proc_1 + y_a5_proc_2 + y_a5_proc_3 - tau = 0
 c29: y_a5_proc_0 <= 0
 c30: y_a5_proc_1 <= 0
 c31: y_a5_proc_2 <= 0
 c32: y_a5_proc_3 <= 1
 c33: tau <= 0.001517450683
 c34: y_a6_proc_0 + y_a6_proc_1 + y_a6_proc_2 + y_a6_proc_3 - tau = 0
 c35: y_a6_proc_0 <= 0
 c36: y_a6_proc_1 <= 1
 c37: y_a6_proc_2 <= 0
 c38: y_a6_proc_3 <= 0
 c39: tau <= 0.000801924619
 c40: y_a7_proc_1 + y_a7_proc_3 - tau = 0
 c41: y_a7_proc_1 <= 1
 c42: y_a7_proc_3 <= 0
 c43: tau <= 0.001402524544
 c44: y_a8_proc_0 + y_a8_proc_1 + y_a8_proc_3 - tau = 0
 c45: y_a8_proc_0 <= 1
 c46: y_a8_proc_1 <= 0
 c47: y_a8_proc_3 <= 0
 c48: tau <= 0.001228501229
 c49: y_a9_proc_0 + y_a9_proc_1 + y_a9_proc_2 + y_a9_proc_3 - tau = 0
 c50: y_a9_proc_0 <= 1
 c51: y_a9_proc_1 <= 0
 c52: y_a9_proc_2 <= 0
 c53: y_a9_proc_3 <= 0
 c54: u_a1 - u_a0 - 1140 y_a0_proc_1 - 903 y_a0_proc_3 >= -2
 c55: u_a2 - u_a0 - 1140 y_a0_proc_1 - 903 y_a0_proc_3 >= -1
 c56: u_a0 - u_a3 - 979 y_a3_proc_0 - 1265 y_a3_proc_1 - 934 y_a3_proc_2
      - 933 y_a3_proc_3 >= 0
 c57: u_a0 - u_a4 - 832 y_a4_proc_0 - 1140 y_a4_proc_1 - 1234 y_a4_proc_2 >= 0
 c58: u_a5 - u_a3 - 979 y_a3_proc_0 - 1265 y_a3_proc_1 - 934 y_a3_proc_2
      - 933 y_a3_proc_3 >= -2
 c59: u_a6 - u_a5 - 872 y_a5_proc_0 - 905 y_a5_proc_1 - 1135 y_a5_proc_2
      - 856 y_a5_proc_3 >= 0
 c60: u_a1 - u_a7 - 1247 y_a7_proc_1 - 1268 y_a7_proc_3 >= 0
 c61: u_a1 - u_a8 - 713 y_a8_proc_0 - 765 y_a8_proc_1 - 674 y_a8_proc_3 >= 0
 c62: u_a9 - u_a5 - 872 y_a5_proc_0 - 905 y_a5_proc_1 - 1135 y_a5_proc_2
      - 856 y_a5_proc_3 >= 0
 c63: u_a7 - u_a6 - 951 y_a6_proc_0 - 659 y_a6_proc_1 - 1101 y_a6_proc_2
      - 411 y_a6_proc_3 >= -1
 c64: u_a8 - u_a1 - 196 y_a1_proc_0 - 744 y_a1_proc_1 - 211 y_a1_proc_2
      - 1057 y_a1_proc_3 >= -1
 c65: u_a4 - u_a2 - 731 y_a2_proc_1 - 1014 y_a2_proc_2 - 633 y_a2_proc_3 >= 0
 c66: u_a5 - u_a7 - 1247 y_a7_proc_1 - 1268 y_a7_proc_3 >= 0
 c67: - 872 y_a5_proc_0 - 905 y_a5_proc_1 - 1135 y_a5_proc_2 - 856 y_a5_proc_3
       >= -1
 c68: u_a7 - u_a9 - 814 y_a9_proc_0 - 974 y_a9_proc_1 - 1011 y_a9_proc_2
      - 815 y_a9_proc_3 >= -1
 c69: u_a3 - u_a1 - 196 y_a1_proc_0 - 744 y_a1_proc_1 - 211 y_a1_proc_2
      - 1057 y_a1_proc_3 >= 0
 c70: - 1247 y_a7_proc_1 - 1268 y_a7_proc_3 >= -1
 c71: u_a3 - u_a6 - 951 y_a6_proc_0 - 659 y_a6_proc_1 - 1101 y_a6_proc_2
      - 411 y_a6_proc_3 >= 0
 c72: u_a4 - u_a6 - 951 y_a6_proc_0 - 659 y_a6_proc_1 - 1101 y_a6_proc_2
      - 411 y_a6_proc_3 >= 0
 c73: u_a8 - u_a3 - 979 y_a3_proc_0 - 1265 y_a3_proc_1 - 934 y_a3_proc_2
      - 933 y_a3_proc_3 >= -1
 c74: u_a1 - u_a0 - 903 y_a0_proc_3 >= -1282
 c75: u_a1 - u_a0 - 1140 y_a0_proc_1 >= -2550
 c76: u_a0 - u_a1 - 1057 y_a1_proc_3 >= -1255
 c77: u_a0 - u_a1 - 744 y_a1_proc_1 >= -2523
 c78: u_a2 - u_a0 - 903 y_a0_proc_3 >= -1
 c79: u_a2 - u_a0 - 1140 y_a0_proc_1 >= -2537
 c80: u_a0 - u_a2 - 633 y_a2_proc_3 >= 0
 c81: u_a0 - u_a2 - 731 y_a2_proc_1 >= -2536
 c82: u_a3 - u_a0 - 903 y_a0_proc_3 >= -1282
 c83: u_a3 - u_a0 - 1140 y_a0_proc_1 >= -2550
 c84: u_a0 - u_a3 - 933 y_a3_proc_3 >= -1255
 c85: u_a0 - u_a3 - 1265 y_a3_proc_1 >= -2523
 c86: u_a4 - u_a0 - 1140 y_a0_proc_1 >= -2550
 c87: u_a0 - u_a4 - 1140 y_a4_proc_1 >= -2523
 c88: u_a5 - u_a0 - 903 y_a0_proc_3 >= -3
 c89: u_a5 - u_a0 - 1140 y_a0_proc_1 >= -2539
 c90: u_a0 - u_a5 - 856 y_a5_proc_3 >= 2
 c91: u_a0 - u_a5 - 905 y_a5_proc_1 >= -2534
 c92: u_a6 - u_a0 - 903 y_a0_proc_3 >= -1255
 c93: u_a6 - u_a0 - 1140 y_a0_proc_1 >= -1255
 c94: u_a0 - u_a6 - 411 y_a6_proc_3 >= -1282
 c95: u_a0 - u_a6 - 659 y_a6_proc_1 >= -1282
 c96: u_a7 - u_a0 - 903 y_a0_proc_3 >= -1255
 c97: u_a7 - u_a0 - 1140 y_a0_proc_1 >= -1255
 c98: u_a0 - u_a7 - 1268 y_a7_proc_3 >= -1282
 c99: u_a0 - u_a7 - 1247 y_a7_proc_1 >= -1282
 c100: u_a8 - u_a0 - 903 y_a0_proc_3 >= -1282
 c101: u_a8 - u_a0 - 1140 y_a0_proc_1 >= -2550
 c102: u_a0 - u_a8 - 674 y_a8_proc_3 >= -1255
 c103: u_a0 - u_a8 - 765 y_a8_proc_1 >= -2523
 c104: u_a9 - u_a0 - 903 y_a0_proc_3 >= -1282
 c105: u_a9 - u_a0 - 1140 y_a0_proc_1 >= -2550
 c106: u_a0 - u_a9 - 815 y_a9_proc_3 >= -1255
 c107: u_a0 - u_a9 - 974 y_a9_proc_1 >= -2523
 c108: u_a2 - u_a1 - 211 y_a1_proc_2 >= -2550
 c109: u_a2 - u_a1 - 1057 y_a1_proc_3 >= -1282
 c110: u_a2 - u_a1 - 744 y_a1_proc_1 >= -2550
 c111: u_a1 - u_a2 - 1014 y_a2_proc_2 >= -2523
 c112: u_a1 - u_a2 - 633 y_a2_proc_3 >= -1255
 c113: u_a1 - u_a2 - 731 y_a2_proc_1 >= -2523
 c114: u_a3 - u_a1 - 211 y_a1_proc_2 >= -2536
 c115: u_a3 - u_a1 - 1057 y_a1_proc_3 >= -2536
 c116: u_a3 - u_a1 - 196 y_a1_proc_0 >= 0
 c117: u_a3 - u_a1 - 744 y_a1_proc_1 >= -2536
 c118: u_a1 - u_a3 - 934 y_a3_proc_2 >= -2537
 c119: u_a1 - u_a3 - 933 y_a3_proc_3 >= -2537
 c120: u_a1 - u_a3 - 979 y_a3_proc_0 >= -1
 c121: u_a1 - u_a3 - 1265 y_a3_proc_1 >= -2537
 c122: u_a4 - u_a1 - 211 y_a1_proc_2 >= -1255
 c123: u_a4 - u_a1 - 196 y_a1_proc_0 >= -1255
 c124: u_a4 - u_a1 - 744 y_a1_proc_1 >= -2523
 c125: u_a1 - u_a4 - 1234 y_a4_proc_2 >= -1282
 c126: u_a1 - u_a4 - 832 y_a4_proc_0 >= -1282
 c127: u_a1 - u_a4 - 1140 y_a4_proc_1 >= -2550
 c128: u_a5 - u_a1 - 211 y_a1_proc_2 >= -2550
 c129: u_a5 - u_a1 - 1057 y_a1_proc_3 >= -1282
 c130: u_a5 - u_a1 - 196 y_a1_proc_0 >= -1282
 c131: u_a5 - u_a1 - 744 y_a1_proc_1 >= -2550
 c132: u_a1 - u_a5 - 1135 y_a5_proc_2 >= -2523
 c133: u_a1 - u_a5 - 856 y_a5_proc_3 >= -1255
 c134: u_a1 - u_a5 - 872 y_a5_proc_0 >= -1255
 c135: u_a1 - u_a5 - 905 y_a5_proc_1 >= -2523
 c136: u_a6 - u_a1 - 211 y_a1_proc_2 >= -2550
 c137: u_a6 - u_a1 - 1057 y_a1_proc_3 >= -2550
 c138: u_a6 - u_a1 - 196 y_a1_proc_0 >= -1282
 c139: u_a6 - u_a1 - 744 y_a1_proc_1 >= -1282
 c140: u_a1 - u_a6 - 1101 y_a6_proc_2 >= -2523
 c141: u_a1 - u_a6 - 411 y_a6_proc_3 >= -2523
 c142: u_a1 - u_a6 - 951 y_a6_proc_0 >= -1255
 c143: u_a1 - u_a6 - 659 y_a6_proc_1 >= -1255
 c144: u_a7 - u_a1 - 1057 y_a1_proc_3 >= -2550
 c145: u_a7 - u_a1 - 744 y_a1_proc_1 >= -1282
 c146: u_a1 - u_a7 - 1268 y_a7_proc_3 >= -2523
 c147: u_a1 - u_a7 - 1247 y_a7_proc_1 >= -1255
 c148: u_a8 - u_a1 - 1057 y_a1_proc_3 >= -2537
 c149: u_a8 - u_a1 - 196 y_a1_proc_0 >= -1
 c150: u_a8 - u_a1 - 744 y_a1_proc_1 >= -2537
 c151: u_a1 - u_a8 - 674 y_a8_proc_3 >= -2536
 c152: u_a1 - u_a8 - 713 y_a8_proc_0 >= 0
 c153: u_a1 - u_a8 - 765 y_a8_proc_1 >= -2536
 c154: u_a9 - u_a1 - 211 y_a1_proc_2 >= -2537
 c155: u_a9 - u_a1 - 1057 y_a1_proc_3 >= -2537
 c156: u_a9 - u_a1 - 196 y_a1_proc_0 >= -1
 c157: u_a9 - u_a1 - 744 y_a1_proc_1 >= -2537
 c158: u_a1 - u_a9 - 1011 y_a9_proc_2 >= -2536
 c159: u_a1 - u_a9 - 815 y_a9_proc_3 >= -2536
 c160: u_a1 - u_a9 - 814 y_a9_proc_0 >= 0
 c161: u_a1 - u_a9 - 974 y_a9_proc_1 >= -2536
 c162: u_a3 - u_a2 - 1014 y_a2_proc_2 >= -2523
 c163: u_a3 - u_a2 - 633 y_a2_proc_3 >= -1255
 c164: u_a3 - u_a2 - 731 y_a2_proc_1 >= -2523
 c165: u_a2 - u_a3 - 934 y_a3_proc_2 >= -2550
 c166: u_a2 - u_a3 - 933 y_a3_proc_3 >= -1282
 c167: u_a2 - u_a3 - 1265 y_a3_proc_1 >= -2550
 c168: u_a4 - u_a2 - 1014 y_a2_proc_2 >= -1282
 c169: u_a4 - u_a2 - 731 y_a2_proc_1 >= -2550
 c170: u_a2 - u_a4 - 1234 y_a4_proc_2 >= -1255
 c171: u_a2 - u_a4 - 1140 y_a4_proc_1 >= -2523
 c172: u_a5 - u_a2 - 1014 y_a2_proc_2 >= -2538
 c173: u_a5 - u_a2 - 633 y_a2_proc_3 >= -2
 c174: u_a5 - u_a2 - 731 y_a2_proc_1 >= -2538
 c175: u_a2 - u_a5 - 1135 y_a5_proc_2 >= -2535
 c176: u_a2 - u_a5 - 856 y_a5_proc_3 >= 1
 c177: u_a2 - u_a5 - 905 y_a5_proc_1 >= -2535
 c178: u_a6 - u_a2 - 1014 y_a2_proc_2 >= -2523
 c179: u_a6 - u_a2 - 633 y_a2_proc_3 >= -1255
 c180: u_a6 - u_a2 - 731 y_a2_proc_1 >= -1255
 c181: u_a2 - u_a6 - 1101 y_a6_proc_2 >= -2550
 c182: u_a2 - u_a6 - 411 y_a6_proc_3 >= -1282
 c183: u_a2 - u_a6 - 659 y_a6_proc_1 >= -1282
 c184: u_a7 - u_a2 - 633 y_a2_proc_3 >= -1282
 c185: u_a7 - u_a2 - 731 y_a2_proc_1 >= -1282
 c186: u_a2 - u_a7 - 1268 y_a7_proc_3 >= -1255
 c187: u_a2 - u_a7 - 1247 y_a7_proc_1 >= -1255
 c188: u_a8 - u_a2 - 633 y_a2_proc_3 >= -1282
 c189: u_a8 - u_a2 - 731 y_a2_proc_1 >= -2550
 c190: u_a2 - u_a8 - 674 y_a8_proc_3 >= -1255
 c191: u_a2 - u_a8 - 765 y_a8_proc_1 >= -2523
 c192: u_a9 - u_a2 - 1014 y_a2_proc_2 >= -2523
 c193: u_a9 - u_a2 - 633 y_a2_proc_3 >= -1255
 c194: u_a9 - u_a2 - 731 y_a2_proc_1 >= -2523
 c195: u_a2 - u_a9 - 1011 y_a9_proc_2 >= -2550
 c196: u_a2 - u_a9 - 815 y_a9_proc_3 >= -1282
 c197: u_a2 - u_a9 - 974 y_a9_proc_1 >= -2550
 c198: u_a4 - u_a3 - 934 y_a3_proc_2 >= -1282
 c199: u_a4 - u_a3 - 979 y_a3_proc_0 >= -1282
 c200: u_a4 - u_a3 - 1265 y_a3_proc_1 >= -2550
 c201: u_a3 - u_a4 - 1234 y_a4_proc_2 >= -1255
 c202: u_a3 - u_a4 - 832 y_a4_proc_0 >= -1255
 c203: u_a3 - u_a4 - 1140 y_a4_proc_1 >= -2523
 c204: u_a5 - u_a3 - 934 y_a3_proc_2 >= -2550
 c205: u_a5 - u_a3 - 933 y_a3_proc_3 >= -1282
 c206: u_a5 - u_a3 - 979 y_a3_proc_0 >= -1282
 c207: u_a5 - u_a3 - 1265 y_a3_proc_1 >= -2550
 c208: u_a3 - u_a5 - 1135 y_a5_proc_2 >= -2523
 c209: u_a3 - u_a5 - 856 y_a5_proc_3 >= -1255
 c210: u_a3 - u_a5 - 872 y_a5_proc_0 >= -1255
 c211: u_a3 - u_a5 - 905 y_a5_proc_1 >= -2523
 c212: u_a6 - u_a3 - 934 y_a3_proc_2 >= -2550
 c213: u_a6 - u_a3 - 933 y_a3_proc_3 >= -2550
 c214: u_a6 - u_a3 - 979 y_a3_proc_0 >= -1282
 c215: u_a6 - u_a3 - 1265 y_a3_proc_1 >= -1282
 c216: u_a3 - u_a6 - 1101 y_a6_proc_2 >= -2523
 c217: u_a3 - u_a6 - 411 y_a6_proc_3 >= -2523
 c218: u_a3 - u_a6 - 951 y_a6_proc_0 >= -1255
 c219: u_a3 - u_a6 - 659 y_a6_proc_1 >= -1255
 c220: u_a7 - u_a3 - 933 y_a3_proc_3 >= -2550
 c221: u_a7 - u_a3 - 1265 y_a3_proc_1 >= -1282
 c222: u_a3 - u_a7 - 1268 y_a7_proc_3 >= -2523
 c223: u_a3 - u_a7 - 1247 y_a7_proc_1 >= -1255
 c224: u_a8 - u_a3 - 933 y_a3_proc_3 >= -2537
 c225: u_a8 - u_a3 - 979 y_a3_proc_0 >= -1
 c226: u_a8 - u_a3 - 1265 y_a3_proc_1 >= -2537
 c227: u_a3 - u_a8 - 674 y_a8_proc_3 >= -2536
 c228: u_a3 - u_a8 - 713 y_a8_proc_0 >= 0
 c229: u_a3 - u_a8 - 765 y_a8_proc_1 >= -2536
 c230: u_a9 - u_a3 - 934 y_a3_proc_2 >= -2538
 c231: u_a9 - u_a3 - 933 y_a3_proc_3 >= -2538
 c232: u_a9 - u_a3 - 979 y_a3_proc_0 >= -2
 c233: u_a9 - u_a3 - 1265 y_a3_proc_1 >= -2538
 c234: u_a3 - u_a9 - 1011 y_a9_proc_2 >= -2535
 c235: u_a3 - u_a9 - 815 y_a9_proc_3 >= -2535
 c236: u_a3 - u_a9 - 814 y_a9_proc_0 >= 1
 c237: u_a3 - u_a9 - 974 y_a9_proc_1 >= -2535
 c238: u_a5 - u_a4 - 1234 y_a4_proc_2 >= -1255
 c239: u_a5 - u_a4 - 832 y_a4_proc_0 >= -2523
 c240: u_a5 - u_a4 - 1140 y_a4_proc_1 >= -2523
 c241: u_a4 - u_a5 - 1135 y_a5_proc_2 >= -1282
 c242: u_a4 - u_a5 - 872 y_a5_proc_0 >= -2550
 c243: u_a4 - u_a5 - 905 y_a5_proc_1 >= -2550
 c244: u_a6 - u_a4 - 1234 y_a4_proc_2 >= -1255
 c245: u_a6 - u_a4 - 832 y_a4_proc_0 >= -2523
 c246: u_a6 - u_a4 - 1140 y_a4_proc_1 >= -1255
 c247: u_a4 - u_a6 - 1101 y_a6_proc_2 >= -1282
 c248: u_a4 - u_a6 - 951 y_a6_proc_0 >= -2550
 c249: u_a4 - u_a6 - 659 y_a6_proc_1 >= -1282
 c250: u_a7 - u_a4 - 1140 y_a4_proc_1 >= -1255
 c251: u_a4 - u_a7 - 1247 y_a7_proc_1 >= -1282
 c252: u_a8 - u_a4 - 832 y_a4_proc_0 >= -1282
 c253: u_a8 - u_a4 - 1140 y_a4_proc_1 >= -2550
 c254: u_a4 - u_a8 - 713 y_a8_proc_0 >= -1255
 c255: u_a4 - u_a8 - 765 y_a8_proc_1 >= -2523
 c256: u_a9 - u_a4 - 1234 y_a4_proc_2 >= -1282
 c257: u_a9 - u_a4 - 832 y_a4_proc_0 >= -1282
 c258: u_a9 - u_a4 - 1140 y_a4_proc_1 >= -2550
 c259: u_a4 - u_a9 - 1011 y_a9_proc_2 >= -1255
 c260: u_a4 - u_a9 - 814 y_a9_proc_0 >= -1255
 c261: u_a4 - u_a9 - 974 y_a9_proc_1 >= -2523
 c262: u_a6 - u_a5 - 1135 y_a5_proc_2 >= -2550
 c263: u_a6 - u_a5 - 856 y_a5_proc_3 >= -1282
 c264: u_a6 - u_a5 - 872 y_a5_proc_0 >= -2550
 c265: u_a6 - u_a5 - 905 y_a5_proc_1 >= -1282
 c266: u_a5 - u_a6 - 1101 y_a6_proc_2 >= -2523
 c267: u_a5 - u_a6 - 411 y_a6_proc_3 >= -1255
 c268: u_a5 - u_a6 - 951 y_a6_proc_0 >= -2523
 c269: u_a5 - u_a6 - 659 y_a6_proc_1 >= -1255
 c270: u_a7 - u_a5 - 856 y_a5_proc_3 >= -1282
 c271: u_a7 - u_a5 - 905 y_a5_proc_1 >= -1282
 c272: u_a5 - u_a7 - 1268 y_a7_proc_3 >= -1255
 c273: u_a5 - u_a7 - 1247 y_a7_proc_1 >= -1255
 c274: u_a8 - u_a5 - 856 y_a5_proc_3 >= -1282
 c275: u_a8 - u_a5 - 872 y_a5_proc_0 >= -1282
 c276: u_a8 - u_a5 - 905 y_a5_proc_1 >= -2550
 c277: u_a5 - u_a8 - 674 y_a8_proc_3 >= -1255
 c278: u_a5 - u_a8 - 713 y_a8_proc_0 >= -1255
 c279: u_a5 - u_a8 - 765 y_a8_proc_1 >= -2523
 c280: u_a9 - u_a5 - 1135 y_a5_proc_2 >= -2550
 c281: u_a9 - u_a5 - 856 y_a5_proc_3 >= -1282
 c282: u_a9 - u_a5 - 872 y_a5_proc_0 >= -1282
 c283: u_a9 - u_a5 - 905 y_a5_proc_1 >= -2550
 c284: u_a5 - u_a9 - 1011 y_a9_proc_2 >= -2523
 c285: u_a5 - u_a9 - 815 y_a9_proc_3 >= -1255
 c286: u_a5 - u_a9 - 814 y_a9_proc_0 >= -1255
 c287: u_a5 - u_a9 - 974 y_a9_proc_1 >= -2523
 c288: u_a7 - u_a6 - 411 y_a6_proc_3 >= -2537
 c289: u_a7 - u_a6 - 659 y_a6_proc_1 >= -1
 c290: u_a6 - u_a7 - 1268 y_a7_proc_3 >= -2536
 c291: u_a6 - u_a7 - 1247 y_a7_proc_1 >= 0
 c292: u_a8 - u_a6 - 411 y_a6_proc_3 >= -2550
 c293: u_a8 - u_a6 - 951 y_a6_proc_0 >= -1282
 c294: u_a8 - u_a6 - 659 y_a6_proc_1 >= -1282
 c295: u_a6 - u_a8 - 674 y_a8_proc_3 >= -2523
 c296: u_a6 - u_a8 - 713 y_a8_proc_0 >= -1255
 c297: u_a6 - u_a8 - 765 y_a8_proc_1 >= -1255
 c298: u_a9 - u_a6 - 1101 y_a6_proc_2 >= -2550
 c299: u_a9 - u_a6 - 411 y_a6_proc_3 >= -2550
 c300: u_a9 - u_a6 - 951 y_a6_proc_0 >= -1282
 c301: u_a9 - u_a6 - 659 y_a6_proc_1 >= -1282
 c302: u_a6 - u_a9 - 1011 y_a9_proc_2 >= -2523
 c303: u_a6 - u_a9 - 815 y_a9_proc_3 >= -2523
 c304: u_a6 - u_a9 - 814 y_a9_proc_0 >= -1255
 c305: u_a6 - u_a9 - 974 y_a9_proc_1 >= -1255
 c306: u_a8 - u_a7 - 1268 y_a7_proc_3 >= -2550
 c307: u_a8 - u_a7 - 1247 y_a7_proc_1 >= -1282
 c308: u_a7 - u_a8 - 674 y_a8_proc_3 >= -2523
 c309: u_a7 - u_a8 - 765 y_a8_proc_1 >= -1255
 c310: u_a9 - u_a7 - 1268 y_a7_proc_3 >= -2550
 c311: u_a9 - u_a7 - 1247 y_a7_proc_1 >= -1282
 c312: u_a7 - u_a9 - 815 y_a9_proc_3 >= -2523
 c313: u_a7 - u_a9 - 974 y_a9_proc_1 >= -1255
 c314: u_a9 - u_a8 - 674 y_a8_proc_3 >= -2537
 c315: u_a9 - u_a8 - 713 y_a8_proc_0 >= -1
 c316: u_a9 - u_a8 - 765 y_a8_proc_1 >= -2537
 c317: u_a8 - u_a9 - 815 y_a9_proc_3 >= -2536
 c318: u_a8 - u_a9 - 814 y_a9_proc_0 >= 0
 c319: u_a8 - u_a9 - 974 y_a9_proc_1 >= -2536

Bounds
End
