benchmark/results/graph__10-1000-0.10-04_11/graph__10-1000-0.10-04_11_QuintonOs_Benders_primal_sub.txt
solution for: Quinton Bounded Benders_primal_sub
objective: 0.000342818
status: OPTIMAL_SOLUTION(2)
u_a0=2.721
u_a1=1.580
u_a2=2.031
u_a3=2.000
u_a4=2.248
u_a5=0.427
u_a6=0.721
u_a8=1.336
u_a9=0.721
tau=0.000
y_a0_proc_3=0.000
y_a1_proc_0=0.000
y_a2_proc_3=0.000
y_a3_proc_0=0.000
y_a4_proc_2=0.000
y_a5_proc_3=0.000
y_a6_proc_1=0.000
y_a7_proc_1=0.000
y_a8_proc_0=0.000
y_a9_proc_0=0.000
